
Gurobi 9.5.2 (mac64[arm]) logging started Mon Apr 24 16:26:16 2023

Set parameter LogFile to value "Java/output/iterative_model/scenario_seed_4_nJob_20_machineCount_1/mip_increment_2/log.txt"
Gurobi Optimizer version 9.5.2 build v9.5.2rc0 (mac64[arm])
Thread count: 8 physical cores, 8 logical processors, using up to 8 threads
Optimize a model with 580 rows, 1820 columns and 11543 nonzeros
Model fingerprint: 0x5fa908ac
Variable types: 0 continuous, 1820 integer (1820 binary)
Coefficient statistics:
  Matrix range     [1e+00, 2e+02]
  Objective range  [2e+01, 3e+06]
  Bounds range     [1e+00, 1e+00]
  RHS range        [1e+00, 1e+00]
Presolve removed 123 rows and 395 columns
Presolve time: 0.02s
Presolved: 457 rows, 1425 columns, 8285 nonzeros
Variable types: 0 continuous, 1425 integer (1419 binary)

Root relaxation: objective 3.065020e+03, 188 iterations, 0.00 seconds (0.00 work units)

    Nodes    |    Current Node    |     Objective Bounds      |     Work
 Expl Unexpl |  Obj  Depth IntInf | Incumbent    BestBd   Gap | It/Node Time

     0     0 3065.02007    0   41          - 3065.02007      -     -    0s
H    0     0                    6324016.0000 3065.02007   100%     -    0s
H    0     0                    2186608.0000 3065.02007   100%     -    0s
H    0     0                    3664.0000000 3065.02007  16.3%     -    0s
H    0     0                    3568.0000000 3065.02007  14.1%     -    0s
     0     0 3150.98055    0   60 3568.00000 3150.98055  11.7%     -    0s
     0     0 3176.61538    0   33 3568.00000 3176.61538  11.0%     -    0s
     0     0 3236.11429    0   34 3568.00000 3236.11429  9.30%     -    0s
H    0     0                    3536.0000000 3236.11429  8.48%     -    0s
H    0     0                    3504.0000000 3236.11429  7.65%     -    0s
     0     0 3244.58237    0   56 3504.00000 3244.58237  7.40%     -    0s
     0     0 3244.58237    0   56 3504.00000 3244.58237  7.40%     -    0s
     0     0 3316.67512    0   53 3504.00000 3316.67512  5.35%     -    0s
     0     0 3319.55066    0   55 3504.00000 3319.55066  5.26%     -    0s
     0     0 3319.56898    0   56 3504.00000 3319.56898  5.26%     -    0s
     0     0 3343.49808    0   69 3504.00000 3343.49808  4.58%     -    0s
H    0     0                    3408.0000000 3343.49808  1.89%     -    0s
H    0     0                    3376.0000000 3343.49808  0.96%     -    0s
     0     0 3356.00000    0   49 3376.00000 3356.00000  0.59%     -    0s
     0     0 3361.17529    0   56 3376.00000 3361.17529  0.44%     -    0s

Cutting planes:
  Cover: 3
  Clique: 22
  MIR: 4
  GUB cover: 7
  Inf proof: 1
  Zero half: 4
  RLT: 1
  Relax-and-lift: 6

Explored 1 nodes (769 simplex iterations) in 0.09 seconds (0.12 work units)
Thread count was 8 (of 8 available processors)

Solution count 8: 3376 3408 3504 ... 6.32402e+06

Optimal solution found (tolerance 1.00e-04)
Best objective 3.376000000000e+03, best bound 3.376000000000e+03, gap 0.0000%

Gurobi 9.5.2 (mac64[arm]) logging started Mon Apr 24 16:26:16 2023

Set parameter LogFile to value "Java/output/iterative_model/scenario_seed_4_nJob_20_machineCount_1/mip_increment_2/log.txt"
Gurobi Optimizer version 9.5.2 build v9.5.2rc0 (mac64[arm])
Thread count: 8 physical cores, 8 logical processors, using up to 8 threads
Optimize a model with 580 rows, 1407 columns and 10338 nonzeros
Model fingerprint: 0xeccddd7d
Variable types: 0 continuous, 1407 integer (1407 binary)
Coefficient statistics:
  Matrix range     [1e+00, 2e+02]
  Objective range  [2e+02, 5e+05]
  Bounds range     [1e+00, 1e+00]
  RHS range        [1e+00, 1e+00]
Found heuristic solution: objective 1908004.0000
Presolve removed 221 rows and 288 columns
Presolve time: 0.02s
Presolved: 359 rows, 1119 columns, 7819 nonzeros
Variable types: 0 continuous, 1119 integer (1115 binary)
Found heuristic solution: objective 1668820.0000

Root relaxation: objective 1.377200e+04, 468 iterations, 0.01 seconds (0.01 work units)

    Nodes    |    Current Node    |     Objective Bounds      |     Work
 Expl Unexpl |  Obj  Depth IntInf | Incumbent    BestBd   Gap | It/Node Time

     0     0 13772.0000    0   37 1668820.00 13772.0000  99.2%     -    0s
H    0     0                    701692.00000 13772.0000  98.0%     -    0s
H    0     0                    234052.00000 13772.0000  94.1%     -    0s
     0     0 16602.8206    0   72 234052.000 16602.8206  92.9%     -    0s
     0     0 16624.2596    0   70 234052.000 16624.2596  92.9%     -    0s
     0     0 16678.6445    0   74 234052.000 16678.6445  92.9%     -    0s
     0     0 16679.8477    0   76 234052.000 16679.8477  92.9%     -    0s
     0     0 16679.8719    0   78 234052.000 16679.8719  92.9%     -    0s
H    0     0                    234020.00000 17195.5674  92.7%     -    0s
     0     0 17195.5674    0   83 234020.000 17195.5674  92.7%     -    0s
H    0     0                    90364.000000 17195.5674  81.0%     -    0s
     0     0 17291.2381    0   87 90364.0000 17291.2381  80.9%     -    0s
H    0     0                    83772.000000 17291.2381  79.4%     -    0s
     0     0 19325.2413    0   93 83772.0000 19325.2413  76.9%     -    0s
     0     0 19325.2413    0   33 83772.0000 19325.2413  76.9%     -    0s
H    0     0                    27364.000000 19325.2413  29.4%     -    0s
     0     0 19325.2413    0   81 27364.0000 19325.2413  29.4%     -    0s
     0     0 19325.2413    0   54 27364.0000 19325.2413  29.4%     -    0s
     0     0 20709.2877    0   71 27364.0000 20709.2877  24.3%     -    0s
     0     0 24732.3529    0   75 27364.0000 24732.3529  9.62%     -    0s
     0     0 27364.0000    0   45 27364.0000 27364.0000  0.00%     -    0s

Cutting planes:
  Gomory: 2
  Cover: 1
  Clique: 9
  MIR: 7
  StrongCG: 2
  GUB cover: 14
  Zero half: 3
  Relax-and-lift: 2

Explored 1 nodes (2707 simplex iterations) in 0.23 seconds (0.28 work units)
Thread count was 8 (of 8 available processors)

Solution count 9: 27364 83772 90364 ... 1.908e+06

Optimal solution found (tolerance 1.00e-04)
Best objective 2.736400000000e+04, best bound 2.736400000000e+04, gap 0.0000%

Gurobi 9.5.2 (mac64[arm]) logging started Mon Apr 24 16:26:16 2023

Set parameter LogFile to value "Java/output/iterative_model/scenario_seed_4_nJob_20_machineCount_1/mip_increment_2/log.txt"
Gurobi Optimizer version 9.5.2 build v9.5.2rc0 (mac64[arm])
Thread count: 8 physical cores, 8 logical processors, using up to 8 threads
Optimize a model with 584 rows, 1057 columns and 7914 nonzeros
Model fingerprint: 0xb94f6b64
Variable types: 0 continuous, 1057 integer (1057 binary)
Coefficient statistics:
  Matrix range     [1e+00, 2e+02]
  Objective range  [1e+02, 6e+04]
  Bounds range     [1e+00, 1e+00]
  RHS range        [1e+00, 1e+00]
Found heuristic solution: objective 164166.00000
Presolve removed 311 rows and 218 columns
Presolve time: 0.01s
Presolved: 273 rows, 839 columns, 6159 nonzeros
Variable types: 0 continuous, 839 integer (839 binary)
Found heuristic solution: objective 158078.00000

Root relaxation: objective 1.998467e+04, 353 iterations, 0.00 seconds (0.00 work units)

    Nodes    |    Current Node    |     Objective Bounds      |     Work
 Expl Unexpl |  Obj  Depth IntInf | Incumbent    BestBd   Gap | It/Node Time

     0     0 19984.6667    0   20 158078.000 19984.6667  87.4%     -    0s
H    0     0                    33500.000000 19984.6667  40.3%     -    0s
H    0     0                    22812.000000 19984.6667  12.4%     -    0s
     0     0 20551.7342    0   43 22812.0000 20551.7342  9.91%     -    0s

Cutting planes:
  Gomory: 1
  Cover: 1
  Clique: 3
  GUB cover: 4
  Zero half: 1

Explored 1 nodes (618 simplex iterations) in 0.04 seconds (0.06 work units)
Thread count was 8 (of 8 available processors)

Solution count 4: 22812 33500 158078 164166 

Optimal solution found (tolerance 1.00e-04)
Best objective 2.281200000000e+04, best bound 2.281200000000e+04, gap 0.0000%

Gurobi 9.5.2 (mac64[arm]) logging started Mon Apr 24 16:26:17 2023

Set parameter LogFile to value "Java/output/iterative_model/scenario_seed_4_nJob_20_machineCount_1/mip_increment_2/log.txt"
Gurobi Optimizer version 9.5.2 build v9.5.2rc0 (mac64[arm])
Thread count: 8 physical cores, 8 logical processors, using up to 8 threads
Optimize a model with 1192 rows, 11403 columns and 128748 nonzeros
Model fingerprint: 0x3f8e4ad4
Variable types: 0 continuous, 11403 integer (11403 binary)
Coefficient statistics:
  Matrix range     [1e+00, 2e+02]
  Objective range  [4e+00, 3e+06]
  Bounds range     [1e+00, 1e+00]
  RHS range        [1e+00, 1e+00]

Warning: Completing partial solution with 11340 unfixed non-continuous variables out of 11403
User MIP start produced solution with objective 24976 (0.01s)
Loaded user MIP start with objective 24976

Presolve removed 74 rows and 1626 columns
Presolve time: 0.15s
Presolved: 1118 rows, 9777 columns, 108893 nonzeros
Variable types: 0 continuous, 9777 integer (9763 binary)

Root relaxation: objective 5.875171e+03, 8041 iterations, 0.39 seconds (0.87 work units)

    Nodes    |    Current Node    |     Objective Bounds      |     Work
 Expl Unexpl |  Obj  Depth IntInf | Incumbent    BestBd   Gap | It/Node Time

     0     0 5875.17094    0  187 24976.0000 5875.17094  76.5%     -    0s
H    0     0                    24113.000000 5875.17094  75.6%     -    0s
     0     0 5918.78836    0  300 24113.0000 5918.78836  75.5%     -    1s
H    0     0                    22989.000000 5918.78836  74.3%     -    1s
     0     0 5919.96140    0  330 22989.0000 5919.96140  74.2%     -    1s
     0     0 5922.68311    0  324 22989.0000 5922.68311  74.2%     -    1s
     0     0 5922.73721    0  322 22989.0000 5922.73721  74.2%     -    1s
     0     0 5922.76185    0  322 22989.0000 5922.76185  74.2%     -    1s
     0     0 5956.31915    0  363 22989.0000 5956.31915  74.1%     -    2s
     0     0 5956.31915    0  189 22989.0000 5956.31915  74.1%     -    3s
H    0     0                    22974.000000 5956.31915  74.1%     -    3s
     0     0 6064.28621    0  328 22974.0000 6064.28621  73.6%     -    3s
     0     0 6093.14207    0  322 22974.0000 6093.14207  73.5%     -    3s
     0     0 6096.78085    0  325 22974.0000 6096.78085  73.5%     -    3s
     0     0 6097.09911    0  328 22974.0000 6097.09911  73.5%     -    3s
     0     0 6097.10038    0  332 22974.0000 6097.10038  73.5%     -    3s
H    0     0                    22968.000000 6097.10038  73.5%     -    4s
     0     0 6296.81394    0  390 22968.0000 6296.81394  72.6%     -    4s
     0     0 6304.18718    0  401 22968.0000 6304.18718  72.6%     -    4s
     0     0 6304.82283    0  411 22968.0000 6304.82283  72.5%     -    4s
     0     0 6305.23589    0  409 22968.0000 6305.23589  72.5%     -    4s
     0     0 6305.26241    0  418 22968.0000 6305.26241  72.5%     -    4s
     0     0 6974.39805    0  392 22968.0000 6974.39805  69.6%     -    6s
     0     0 7586.72849    0  420 22968.0000 7586.72849  67.0%     -    6s
     0     0 7595.85509    0  407 22968.0000 7595.85509  66.9%     -    6s
     0     0 7601.04756    0  425 22968.0000 7601.04756  66.9%     -    6s
     0     0 7603.03020    0  442 22968.0000 7603.03020  66.9%     -    6s
     0     0 7603.04571    0  451 22968.0000 7603.04571  66.9%     -    6s
     0     0 8092.46218    0  480 22968.0000 8092.46218  64.8%     -    7s
H    0     0                    22737.000000 8092.46218  64.4%     -    7s
     0     0 8176.03591    0  472 22737.0000 8176.03591  64.0%     -    8s
     0     0 8187.29746    0  486 22737.0000 8187.29746  64.0%     -    8s
     0     0 8188.43289    0  491 22737.0000 8188.43289  64.0%     -    8s
     0     0 8839.88253    0  478 22737.0000 8839.88253  61.1%     -    9s
     0     0 8876.70343    0  486 22737.0000 8876.70343  61.0%     -    9s
     0     0 8880.60899    0  489 22737.0000 8880.60899  60.9%     -    9s
     0     0 8880.78966    0  499 22737.0000 8880.78966  60.9%     -    9s
     0     0 9805.70428    0  473 22737.0000 9805.70428  56.9%     -   10s
H    0     0                    22455.000000 9805.70428  56.3%     -   10s
     0     0 9844.55978    0  476 22455.0000 9844.55978  56.2%     -   10s
     0     0 9853.36835    0  501 22455.0000 9853.36835  56.1%     -   10s
     0     0 9855.12863    0  516 22455.0000 9855.12863  56.1%     -   10s
     0     0 10755.8376    0  498 22455.0000 10755.8376  52.1%     -   10s
     0     0 10976.9134    0  506 22455.0000 10976.9134  51.1%     -   11s
     0     0 11018.9295    0  504 22455.0000 11018.9295  50.9%     -   11s
     0     0 11044.6684    0  532 22455.0000 11044.6684  50.8%     -   11s
     0     0 11048.2677    0  548 22455.0000 11048.2677  50.8%     -   11s
     0     0 11048.9846    0  564 22455.0000 11048.9846  50.8%     -   11s
     0     0 12118.4637    0  473 22455.0000 12118.4637  46.0%     -   12s
H    0     0                    22451.000000 12118.4637  46.0%     -   12s
     0     0 12182.4678    0  514 22451.0000 12182.4678  45.7%     -   12s
H    0     0                    21774.000000 12182.4678  44.1%     -   12s
     0     0 12195.5856    0  534 21774.0000 12195.5856  44.0%     -   12s
     0     0 12198.4121    0  550 21774.0000 12198.4121  44.0%     -   12s
     0     0 12917.3364    0  528 21774.0000 12917.3364  40.7%     -   13s
     0     0 12960.3924    0  575 21774.0000 12960.3924  40.5%     -   13s
     0     0 12968.0744    0  557 21774.0000 12968.0744  40.4%     -   13s
     0     0 12972.7094    0  582 21774.0000 12972.7094  40.4%     -   13s
     0     0 13326.1650    0  532 21774.0000 13326.1650  38.8%     -   14s
H    0     0                    21623.000000 13326.1650  38.4%     -   14s
     0     0 13411.9528    0  549 21623.0000 13411.9528  38.0%     -   14s
     0     0 13413.4278    0  558 21623.0000 13413.4278  38.0%     -   14s
     0     0 13823.5439    0  572 21623.0000 13823.5439  36.1%     -   15s
     0     0 13917.1600    0  554 21623.0000 13917.1600  35.6%     -   15s
     0     0 13945.4536    0  555 21623.0000 13945.4536  35.5%     -   15s
     0     0 13949.2326    0  553 21623.0000 13949.2326  35.5%     -   15s
     0     0 14478.9373    0  596 21623.0000 14478.9373  33.0%     -   16s
     0     0 14968.5745    0  593 21623.0000 14968.5745  30.8%     -   16s
     0     0 15034.7874    0  578 21623.0000 15034.7874  30.5%     -   17s
     0     0 15042.5956    0  601 21623.0000 15042.5956  30.4%     -   17s
     0     0 15045.5461    0  639 21623.0000 15045.5461  30.4%     -   17s
     0     0 15364.6696    0  577 21623.0000 15364.6696  28.9%     -   17s
     0     0 15431.8387    0  619 21623.0000 15431.8387  28.6%     -   18s
     0     0 15449.2693    0  646 21623.0000 15449.2693  28.6%     -   18s
     0     0 15452.0513    0  653 21623.0000 15452.0513  28.5%     -   18s
     0     0 16092.2574    0  597 21623.0000 16092.2574  25.6%     -   19s
     0     0 16192.6148    0  635 21623.0000 16192.6148  25.1%     -   19s
     0     0 16205.2359    0  616 21623.0000 16205.2359  25.1%     -   19s
     0     0 16208.4062    0  649 21623.0000 16208.4062  25.0%     -   19s
     0     0 16570.3709    0  629 21623.0000 16570.3709  23.4%     -   20s
     0     0 16616.1447    0  618 21623.0000 16616.1447  23.2%     -   20s
     0     0 16642.3347    0  643 21623.0000 16642.3347  23.0%     -   20s
H    0     0                    21492.000000 16642.3347  22.6%     -   21s
     0     0 16653.1872    0  635 21492.0000 16653.1872  22.5%     -   21s
     0     0 16700.3877    0  623 21492.0000 16700.3877  22.3%     -   21s
     0     0 16701.7046    0  631 21492.0000 16701.7046  22.3%     -   21s
     0     0 16933.5283    0  590 21492.0000 16933.5283  21.2%     -   21s
     0     0 16992.8455    0  643 21492.0000 16992.8455  20.9%     -   21s
     0     0 17008.2392    0  646 21492.0000 17008.2392  20.9%     -   22s
     0     0 17009.7003    0  626 21492.0000 17009.7003  20.9%     -   22s
     0     0 17217.6286    0  606 21492.0000 17217.6286  19.9%     -   22s
     0     0 17266.9778    0  645 21492.0000 17266.9778  19.7%     -   22s
     0     0 17284.3595    0  664 21492.0000 17284.3595  19.6%     -   23s
     0     0 17287.5592    0  682 21492.0000 17287.5592  19.6%     -   23s
     0     0 17334.0884    0  634 21492.0000 17334.0884  19.3%     -   23s
     0     0 17337.0789    0  628 21492.0000 17337.0789  19.3%     -   23s
     0     0 17337.3440    0  174 21492.0000 17337.3440  19.3%     -   24s
H    0     0                    21487.000000 17337.3440  19.3%     -   24s
     0     0 17337.3440    0  356 21487.0000 17337.3440  19.3%     -   25s
     0     0 17337.3440    0  474 21487.0000 17337.3440  19.3%     -   25s
     0     0 17337.3440    0  477 21487.0000 17337.3440  19.3%     -   25s
     0     0 17337.3440    0  526 21487.0000 17337.3440  19.3%     -   26s
     0     0 17337.3440    0  524 21487.0000 17337.3440  19.3%     -   26s
     0     0 17337.3440    0  547 21487.0000 17337.3440  19.3%     -   26s
     0     0 17361.6679    0  594 21487.0000 17361.6679  19.2%     -   26s
     0     0 17363.5978    0  590 21487.0000 17363.5978  19.2%     -   26s
     0     0 17415.1198    0  620 21487.0000 17415.1198  19.0%     -   26s
     0     0 17420.5123    0  631 21487.0000 17420.5123  18.9%     -   26s
     0     0 17469.6446    0  627 21487.0000 17469.6446  18.7%     -   27s
     0     0 17469.6446    0  625 21487.0000 17469.6446  18.7%     -   27s
     0     2 17469.8096    0  619 21487.0000 17469.8096  18.7%     -   27s
    31    32 19137.8860    5  372 21487.0000 17625.0679  18.0%  2759   30s
H   80    65                    19886.000000 17704.2302  11.0%  1885   31s
H  106    74                    19694.000000 17820.8340  9.51%  1665   32s
H  106    74                    19678.000000 17820.8340  9.44%  1665   32s
H  157    86                    19652.000000 17829.9650  9.27%  1461   33s
H  200   116                    19650.000000 17829.9650  9.26%  1274   34s
   247   132 18512.6079    7  403 19650.0000 18005.2381  8.37%  1116   35s
   562   188 19187.5112   14  395 19650.0000 18093.3417  7.92%   844   40s
  2072     2     cutoff   15      19650.0000 19385.1522  1.35%   352   45s

Cutting planes:
  Gomory: 5
  Cover: 103
  Clique: 127
  MIR: 185
  StrongCG: 89
  GUB cover: 192
  Inf proof: 5
  Zero half: 12
  Mod-K: 1
  RLT: 5

Explored 2095 nodes (940444 simplex iterations) in 45.03 seconds (110.81 work units)
Thread count was 8 (of 8 available processors)

Solution count 10: 19650 19652 19678 ... 22451

Optimal solution found (tolerance 1.00e-04)
Best objective 1.965000000000e+04, best bound 1.965000000000e+04, gap 0.0000%
